qe/outputs/qe/cbrdelay_obs_newl/T=5,eliminate=[I_0,I_1,I_2,I_3,I_4,L_3,L_4,C,B,lhs=L_2],pl=1.smt2
; benchmark generated from python API
(set-info :status unknown)
(declare-fun S_0 () Real)
(declare-fun L_0 () Real)
(declare-fun A_0 () Real)
(declare-fun S_1 () Real)
(declare-fun L_2 () Real)
(declare-fun A_3 () Real)
(declare-fun S_3 () Real)
(declare-fun S_4 () Real)
(declare-fun S_2 () Real)
(declare-fun A_2 () Real)
(declare-fun A_1 () Real)
(declare-fun L_1 () Real)
(declare-fun A_4 () Real)
(assert
 (let (($x34 (>= L_0 0.0)))
 (let (($x8530 (<= (+ S_4 (* (- (/ 1.0 2.0)) S_3) (* (- 1.0) A_3) L_2 (* (/ 1.0 2.0) S_0)) 0.0)))
 (let (($x2091 (<= (+ (* (- 1.0) S_4) A_3 (* (- 1.0) L_2)) 0.0)))
 (let (($x20147 (or $x2091 (<= (+ (* (- 3.0) S_4) (* 4.0 S_2) (* (- 1.0) S_0)) 0.0))))
 (let ((?x1039 (* (- 2.0) L_2)))
 (let ((?x1038 (* 2.0 A_2)))
 (let ((?x360 (* (- 1.0) S_4)))
 (let ((?x1037 (* (- 2.0) A_1)))
 (let ((?x1036 (* 2.0 L_1)))
 (let (($x503 (<= 0.0 (+ (* (- 1.0) L_1) L_0))))
 (let (($x3849 (<= (+ (* (- 2.0) S_4) (* (- 1.0) A_0) L_0 (* 3.0 S_2)) 0.0)))
 (let (($x13912 (not (<= 0.0 (+ L_1 (* (- 1.0) L_2))))))
 (let (($x1860 (<= (+ (* (- 1.0) A_1) (* (- (/ 1.0 2.0)) S_4) A_2 (* (/ 1.0 2.0) S_1)) 0.0)))
 (let (($x20373 (or $x2091 (<= (+ (* (- 2.0) S_4) (* 3.0 S_2) (* (- 1.0) S_1)) 0.0))))
 (let (($x1871 (<= (+ (* (- (/ 1.0 2.0)) S_4) (* (- 1.0) A_0) L_0 (* (/ 3.0 2.0) S_1)) 0.0)))
 (let (($x944 (<= (+ L_1 (* (- 1.0) A_1) ?x360 A_2 (* (- 1.0) L_2) S_2) 0.0)))
 (let ((?x1398 (* 4.0 L_2)))
 (let ((?x1046 (* (- 1.0) S_0)))
 (let ((?x1350 (* (- 4.0) A_2)))
 (let ((?x1315 (* 4.0 A_1)))
 (let ((?x1344 (* (- 4.0) L_1)))
 (let (($x61 (= L_2 L_1)))
 (let ((?x1348 (* (- 3.0) L_2)))
 (let ((?x1317 (* 3.0 A_2)))
 (let ((?x1337 (* (- 3.0) A_1)))
 (let ((?x1312 (* 3.0 L_1)))
 (let (($x51 (= L_1 L_0)))
 (let (($x20357 (or $x51 (<= (+ ?x1036 ?x1037 (* (- 1.0) S_3) ?x1038 S_0 ?x1039) 0.0))))
 (let (($x20076 (or $x61 (<= (+ ?x1344 ?x1315 S_4 ?x1350 (* (- 1.0) S_1) ?x1398) 0.0))))
 (let (($x20074 (or $x61 (<= (+ ?x1344 ?x1315 S_4 (* (- 1.0) A_0) L_0 ?x1350 ?x1398) 0.0))))
 (let ((?x1045 (* 3.0 L_2)))
 (let ((?x1044 (* (- 3.0) A_2)))
 (let ((?x1065 (* (- 1.0) A_0)))
 (let ((?x1043 (* 3.0 A_1)))
 (let ((?x1042 (* (- 3.0) L_1)))
 (let ((?x258 (* (- 1.0) L_2)))
 (let ((?x346 (* (- 1.0) S_2)))
 (let ((?x366 (* (- 1.0) A_1)))
 (let (($x20639 (or $x51 (<= (+ L_1 ?x366 (* (- 1.0) S_3) A_2 S_1 ?x258) 0.0))))
 (let ((?x1033 (* 2.0 L_2)))
 (let ((?x1032 (* (- 2.0) A_2)))
 (let ((?x1031 (* 2.0 A_1)))
 (let ((?x1030 (* (- 2.0) L_1)))
 (let ((?x1410 (* 5.0 L_2)))
 (let ((?x1409 (* (- 5.0) A_2)))
 (let ((?x1408 (* 5.0 A_1)))
 (let ((?x1407 (* (- 5.0) L_1)))
 (let (($x20487 (or $x61 (<= (+ ?x1042 ?x1043 S_3 ?x1044 (* (- 1.0) S_1) ?x1045) 0.0))))
 (let (($x1920 (<= (+ (* (- 1.0) L_1) A_1 ?x1065 L_0 (* (- 1.0) A_2) S_1 L_2) 0.0)))
 (let (($x17289 (or $x61 (<= (+ ?x1030 ?x1031 S_4 (* (- 1.0) S_3) ?x1032 ?x1033) 0.0))))
 (let (($x20494 (or $x61 (<= (+ ?x1030 ?x1031 ?x1032 ?x1033 S_2 (* (- 1.0) S_1)) 0.0))))
 (let (($x20595 (or $x61 (<= (+ (* (- 1.0) L_1) A_1 (* (- 1.0) A_2) L_2) (- 5.0)))))
 (let (($x108 (>= S_1 S_0)))
 (let (($x111 (>= S_2 S_1)))
 (let (($x114 (>= S_3 S_2)))
 (let (($x120 (>= A_2 A_1)))
 (let (($x121 (>= A_3 A_2)))
 (let (($x122 (>= A_4 A_3)))
 (and (<= (+ A_1 (* (- 1.0) L_1)) S_4) (<= (+ A_0 (* (- 1.0) L_0)) S_3) (not (<= (+ A_1 (* (- 1.0) L_1)) S_3)) $x122 $x121 $x120 $x114 $x111 $x108 (or $x51 (not $x503)) (<= (+ (* (- 1.0) L_1) A_1 (* (- 1.0) A_2) L_2) 0.0) $x20595 (or $x61 (<= (+ ?x1030 ?x1031 ?x1065 L_0 ?x1032 ?x1033 S_2) 0.0)) $x20494 (or $x61 (<= (+ ?x1042 ?x1043 ?x1044 ?x1045 S_2 ?x1046) 0.0)) (<= (+ ?x1065 (* (- 1.0) S_3) L_0 (* 2.0 S_1)) 0.0) $x17289 (or $x61 $x1920) $x20487 (<= (+ (* (- 1.0) S_3) S_1) (- 5.0)) (<= (+ (* (- 2.0) S_3) (* 3.0 S_1) ?x1046) 0.0) (or $x61 (<= (+ ?x1407 ?x1408 S_4 ?x1409 ?x1046 ?x1410) 0.0)) (or $x61 (<= (+ ?x1030 ?x1031 ?x1032 S_1 ?x1046 ?x1033) 0.0)) (or $x61 (<= (+ ?x1042 ?x1043 S_4 ?x1044 ?x346 ?x1045) 0.0)) (<= (+ (* (- 1.0) S_3) S_0) (- 10.0)) (or $x61 $x13912) (or $x61 (<= (+ ?x1030 ?x1031 S_3 ?x1032 ?x346 ?x1033) 0.0)) $x20639 (<= (+ ?x346 S_0) (- 5.0)) (<= (+ (* (/ 1.0 3.0) S_3) ?x346 (* (/ 2.0 3.0) S_0)) 0.0) (or $x51 (<= (+ L_1 ?x366 A_2 ?x346 S_0 ?x258) 0.0)) (or $x61 (<= (+ ?x1042 ?x1043 ?x1065 S_3 L_0 ?x1044 ?x1045) 0.0)) $x20074 $x20076 $x20357 (or $x503 (<= (+ ?x1312 ?x1337 ?x360 ?x1317 S_0 ?x1348) 0.0)) (or $x61 (<= (+ ?x1344 ?x1315 S_3 ?x1350 ?x1046 ?x1398) 0.0)) (or $x2091 (<= (+ ?x360 S_2) (- 5.0))) (or $x503 $x944) (or $x1871 $x2091) (or (<= (+ ?x360 (* 2.0 S_1) ?x1046) 0.0) $x2091) $x20373 (or $x503 $x1860 $x13912) (or $x2091 (<= (+ (* (- (/ 1.0 3.0)) S_4) (* (/ 1.0 3.0) S_0)) (- 5.0))) (<= (+ S_4 (* (- 1.0) A_4) L_2) 0.0) (or $x2091 $x3849) (<= (+ (* (/ 1.0 2.0) S_4) (* (- 1.0) S_3) (* (/ 1.0 2.0) S_0)) 0.0) (<= (+ S_4 (* (- 3.0) S_3) (* 2.0 S_1)) 0.0) (or $x2091 (<= (+ (* (- (/ 1.0 2.0)) S_4) (* (/ 1.0 2.0) S_1)) (- 5.0))) (or $x503 (<= (+ ?x1036 ?x1037 ?x360 ?x1038 S_1 ?x1039) 0.0)) $x20147 (<= (+ (* (/ 1.0 4.0) S_4) ?x346 (* (/ 3.0 4.0) S_0)) 0.0) (<= (+ S_4 (* (- 1.0) A_3) L_2 ?x346 S_0) 0.0) $x8530 (<= (+ S_4 (* (- 1.0) S_3) (* (- 1.0) A_3) L_2 S_1) 0.0) $x34 (<= (+ ?x1065 L_0 S_0) 0.0)))))))))))))))))))))))))))))))))))))))))))))))))))))))))))))
(check-sat)
