qe/outputs/qe/cbrdelay_obs_newl/T=5,eliminate=[I_0,I_1,I_2,I_3,I_4,L_3,L_4,C,B,lhs=L_2],pl=1.smt2.z3
[And(A_1 + -1*L_1 <= S_4,
     A_0 + -1*L_0 <= S_3,
     Not(A_1 + -1*L_1 <= S_3),
     A_4 >= A_3,
     A_3 >= A_2,
     A_2 >= A_1,
     S_3 >= S_2,
     S_2 >= S_1,
     S_1 >= S_0,
     Or(L_1 == L_0, Not(0 <= -1*L_1 + L_0)),
     -1*L_1 + A_1 + -1*A_2 + L_2 <= 0,
     Or(L_2 == L_1, -1*L_1 + A_1 + -1*A_2 + L_2 <= -5),
     Or(L_2 == L_1,
        -2*L_1 + 2*A_1 + -1*A_0 + L_0 + -2*A_2 + 2*L_2 + S_2 <=
        0),
     Or(L_2 == L_1,
        -2*L_1 + 2*A_1 + -2*A_2 + 2*L_2 + S_2 + -1*S_1 <= 0),
     Or(L_2 == L_1,
        -3*L_1 + 3*A_1 + -3*A_2 + 3*L_2 + S_2 + -1*S_0 <= 0),
     -1*A_0 + -1*S_3 + L_0 + 2*S_1 <= 0,
     Or(L_2 == L_1,
        -2*L_1 + 2*A_1 + S_4 + -1*S_3 + -2*A_2 + 2*L_2 <= 0),
     Or(L_2 == L_1,
        -1*L_1 + A_1 + -1*A_0 + L_0 + -1*A_2 + S_1 + L_2 <=
        0),
     Or(L_2 == L_1,
        -3*L_1 + 3*A_1 + S_3 + -3*A_2 + -1*S_1 + 3*L_2 <= 0),
     -1*S_3 + S_1 <= -5,
     -2*S_3 + 3*S_1 + -1*S_0 <= 0,
     Or(L_2 == L_1,
        -5*L_1 + 5*A_1 + S_4 + -5*A_2 + -1*S_0 + 5*L_2 <= 0),
     Or(L_2 == L_1,
        -2*L_1 + 2*A_1 + -2*A_2 + S_1 + -1*S_0 + 2*L_2 <= 0),
     Or(L_2 == L_1,
        -3*L_1 + 3*A_1 + S_4 + -3*A_2 + -1*S_2 + 3*L_2 <= 0),
     -1*S_3 + S_0 <= -10,
     Or(L_2 == L_1, Not(0 <= L_1 + -1*L_2)),
     Or(L_2 == L_1,
        -2*L_1 + 2*A_1 + S_3 + -2*A_2 + -1*S_2 + 2*L_2 <= 0),
     Or(L_1 == L_0,
        L_1 + -1*A_1 + -1*S_3 + A_2 + S_1 + -1*L_2 <= 0),
     -1*S_2 + S_0 <= -5,
     (1/3)*S_3 + -1*S_2 + (2/3)*S_0 <= 0,
     Or(L_1 == L_0,
        L_1 + -1*A_1 + A_2 + -1*S_2 + S_0 + -1*L_2 <= 0),
     Or(L_2 == L_1,
        -3*L_1 + 3*A_1 + -1*A_0 + S_3 + L_0 + -3*A_2 + 3*L_2 <=
        0),
     Or(L_2 == L_1,
        -4*L_1 + 4*A_1 + S_4 + -1*A_0 + L_0 + -4*A_2 + 4*L_2 <=
        0),
     Or(L_2 == L_1,
        -4*L_1 + 4*A_1 + S_4 + -4*A_2 + -1*S_1 + 4*L_2 <= 0),
     Or(L_1 == L_0,
        2*L_1 + -2*A_1 + -1*S_3 + 2*A_2 + S_0 + -2*L_2 <= 0),
     Or(0 <= -1*L_1 + L_0,
        3*L_1 + -3*A_1 + -1*S_4 + 3*A_2 + S_0 + -3*L_2 <= 0),
     Or(L_2 == L_1,
        -4*L_1 + 4*A_1 + S_3 + -4*A_2 + -1*S_0 + 4*L_2 <= 0),
     Or(-1*S_4 + A_3 + -1*L_2 <= 0, -1*S_4 + S_2 <= -5),
     Or(0 <= -1*L_1 + L_0,
        L_1 + -1*A_1 + -1*S_4 + A_2 + -1*L_2 + S_2 <= 0),
     Or(-(1/2)*S_4 + -1*A_0 + L_0 + (3/2)*S_1 <= 0,
        -1*S_4 + A_3 + -1*L_2 <= 0),
     Or(-1*S_4 + 2*S_1 + -1*S_0 <= 0,
        -1*S_4 + A_3 + -1*L_2 <= 0),
     Or(-1*S_4 + A_3 + -1*L_2 <= 0,
        -2*S_4 + 3*S_2 + -1*S_1 <= 0),
     Or(0 <= -1*L_1 + L_0,
        -1*A_1 + -(1/2)*S_4 + A_2 + (1/2)*S_1 <= 0,
        Not(0 <= L_1 + -1*L_2)),
     Or(-1*S_4 + A_3 + -1*L_2 <= 0,
        -(1/3)*S_4 + (1/3)*S_0 <= -5),
     S_4 + -1*A_4 + L_2 <= 0,
     Or(-1*S_4 + A_3 + -1*L_2 <= 0,
        -2*S_4 + -1*A_0 + L_0 + 3*S_2 <= 0),
     (1/2)*S_4 + -1*S_3 + (1/2)*S_0 <= 0,
     S_4 + -3*S_3 + 2*S_1 <= 0,
     Or(-1*S_4 + A_3 + -1*L_2 <= 0,
        -(1/2)*S_4 + (1/2)*S_1 <= -5),
     Or(0 <= -1*L_1 + L_0,
        2*L_1 + -2*A_1 + -1*S_4 + 2*A_2 + S_1 + -2*L_2 <= 0),
     Or(-1*S_4 + A_3 + -1*L_2 <= 0,
        -3*S_4 + 4*S_2 + -1*S_0 <= 0),
     (1/4)*S_4 + -1*S_2 + (3/4)*S_0 <= 0,
     S_4 + -1*A_3 + L_2 + -1*S_2 + S_0 <= 0,
     S_4 + -(1/2)*S_3 + -1*A_3 + L_2 + (1/2)*S_0 <= 0,
     S_4 + -1*S_3 + -1*A_3 + L_2 + S_1 <= 0,
     L_0 >= 0,
     -1*A_0 + L_0 + S_0 <= 0)]